p cnf 115 399
2 3 -4 0
-2 -3 -4 0
2 -3 4 0
-2 3 4 0
-5 4 0
-5 3 0
-4 -3 5 0
6 -1 0
6 5 0
1 -5 -6 0
-9 -8 0
-9 2 0
8 -2 9 0
-10 7 0
-10 9 0
-7 -9 10 0
-12 10 0
-12 -11 0
-10 11 12 0
15 -13 0
15 -14 0
13 14 -15 0
-10 13 -16 0
10 -13 -16 0
-10 -13 16 0
10 13 16 0
9 -16 -17 0
-9 16 -17 0
9 16 17 0
-9 -16 17 0
-18 -14 0
-18 -2 0
14 2 18 0
-19 -17 0
-19 -18 0
17 18 19 0
20 -15 0
20 19 0
15 -19 -20 0
-20 -16 -21 0
20 16 -21 0
-20 16 21 0
20 -16 21 0
-21 22 -23 0
21 -22 -23 0
-21 -22 23 0
21 22 23 0
24 12 0
24 -23 0
-12 23 -24 0
-25 -6 0
-25 24 0
6 -24 25 0
27 -2 0
27 -26 0
2 26 -27 0
28 27 0
28 22 0
-27 -22 -28 0
-25 -28 -29 0
25 28 -29 0
-25 28 29 0
25 -28 29 0
-30 14 0
-30 15 0
-14 -15 30 0
7 -15 -32 0
-7 15 -32 0
7 15 32 0
-7 -15 32 0
-33 -31 0
-33 -32 0
31 32 33 0
11 33 -34 0
-11 -33 -34 0
11 -33 34 0
-11 33 34 0
35 13 0
35 -2 0
-13 2 -35 0
34 -35 -36 0
-34 35 -36 0
34 35 36 0
-34 -35 36 0
-33 -36 -37 0
33 36 -37 0
-33 36 37 0
33 -36 37 0
38 -30 0
38 37 0
30 -37 -38 0
29 38 -39 0
-29 -38 -39 0
29 -38 39 0
-29 38 39 0
40 -32 0
40 13 0
32 -13 -40 0
11 -8 -41 0
-11 8 -41 0
11 8 41 0
-11 -8 41 0
43 41 0
43 -42 0
-41 42 -43 0
-43 -31 -44 0
43 31 -44 0
-43 31 44 0
43 -31 44 0
-40 44 -45 0
40 -44 -45 0
-40 -44 45 0
40 44 45 0
-14 -26 -46 0
14 26 -46 0
-14 26 46 0
14 -26 46 0
47 -46 0
47 8 0
46 -8 -47 0
48 45 0
48 47 0
-45 -47 -48 0
-50 -49 0
-50 42 0
49 -42 50 0
-51 -50 0
-51 -18 0
50 18 51 0
-52 -5 0
-52 2 0
5 -2 52 0
-53 -16 0
-53 -52 0
16 52 53 0
54 53 0
54 17 0
-53 -17 -54 0
51 54 -55 0
-51 -54 -55 0
51 -54 55 0
-51 54 55 0
-57 -49 0
-57 -56 0
49 56 57 0
-58 -57 0
-58 19 0
57 -19 58 0
59 -22 0
59 7 0
22 -7 -59 0
-60 -58 0
-60 59 0
58 -59 60 0
-18 41 -61 0
18 -41 -61 0
-18 -41 61 0
18 41 61 0
62 -3 0
62 10 0
3 -10 -62 0
-63 10 0
-63 -62 0
-10 62 63 0
64 -63 0
64 -27 0
63 27 -64 0
-65 -61 0
-65 64 0
61 -64 65 0
-66 43 0
-66 8 0
-43 -8 66 0
67 -66 0
67 -53 0
66 53 -67 0
68 -41 0
68 -3 0
41 3 -68 0
69 67 0
69 68 0
-67 -68 -69 0
65 69 -70 0
-65 -69 -70 0
65 -69 70 0
-65 69 70 0
71 -60 0
71 -70 0
60 70 -71 0
72 -13 0
72 2 0
13 -2 -72 0
73 72 0
73 -49 0
-72 49 -73 0
-74 31 0
-74 53 0
-31 -53 74 0
-66 44 -75 0
66 -44 -75 0
-66 -44 75 0
66 44 75 0
76 74 0
76 75 0
-74 -75 -76 0
77 73 0
77 76 0
-73 -76 -77 0
78 15 0
78 10 0
-15 -10 -78 0
77 78 -79 0
-77 -78 -79 0
77 -78 79 0
-77 78 79 0
-80 -71 0
-80 -79 0
71 79 80 0
-81 55 0
-81 -80 0
-55 80 81 0
-82 48 0
-82 81 0
-48 -81 82 0
83 49 0
83 27 0
-49 -27 -83 0
-84 -18 0
-84 -83 0
18 83 84 0
-85 18 0
-85 49 0
-18 -49 85 0
-86 -84 0
-86 85 0
84 -85 86 0
-83 -26 -87 0
83 26 -87 0
-83 26 87 0
83 -26 87 0
58 87 -88 0
-58 -87 -88 0
58 -87 88 0
-58 87 88 0
89 56 0
89 -66 0
-56 66 -89 0
90 -88 0
90 -89 0
88 89 -90 0
-91 -86 0
-91 90 0
86 -90 91 0
-92 -3 0
-92 -42 0
3 42 92 0
92 -40 -93 0
-92 40 -93 0
92 40 93 0
-92 -40 93 0
93 -15 -94 0
-93 15 -94 0
93 15 94 0
-93 -15 94 0
95 -91 0
95 -94 0
91 94 -95 0
-96 -16 0
-96 -21 0
16 21 96 0
-97 64 0
-97 -67 0
-64 67 97 0
-98 96 0
-98 97 0
-96 -97 98 0
99 -27 0
99 -13 0
27 13 -99 0
100 99 0
100 -17 0
-99 17 -100 0
-20 26 -101 0
20 -26 -101 0
-20 -26 101 0
20 26 101 0
102 -100 0
102 101 0
100 -101 -102 0
103 -62 0
103 -93 0
62 93 -103 0
-102 103 -104 0
102 -103 -104 0
-102 -103 104 0
102 103 104 0
105 -98 0
105 -104 0
98 104 -105 0
13 18 -106 0
-13 -18 -106 0
13 -18 106 0
-13 18 106 0
-107 -10 0
-107 -106 0
10 106 107 0
-108 105 0
-108 107 0
-105 -107 108 0
95 -108 -109 0
-95 108 -109 0
95 108 109 0
-95 -108 109 0
-110 59 0
-110 -32 0
-59 32 110 0
-31 -14 -111 0
31 14 -111 0
-31 14 111 0
31 -14 111 0
-112 -110 0
-112 111 0
110 -111 112 0
113 -109 0
113 -112 0
109 112 -113 0
114 -82 0
114 -113 0
82 113 -114 0
115 -39 0
115 114 0
39 -114 -115 0
61 -38 -69 0
5 35 0
94 50 -28 -66 29 0
43 -51 65 97 -33 -88 0
-14 18 98 62 71 0
68 95 0
-106 26 115 -113 1 0
48 -108 -61 -30 -115 84 0
-85 -2 93 -76 0
55 87 -89 -15 -56 0
-63 -60 -110 99 0
65 19 -66 79 81 71 0
-55 109 91 8 0
86 11 -1 94 0
-13 54 95 113 0
-10 -78 -4 -109 0
84 60 -26 -27 0
-99 -12 0
-36 9 31 99 0
-81 -78 -71 0
61 10 0
53 111 65 -57 0
-59 96 0
55 -112 -65 0
-83 -70 28 0
-55 -83 -25 27 0
-37 -73 72 -49 0
60 5 70 14 115 -110 0
-68 77 27 -76 -57 0
-60 -113 -92 96 50 101 0
48 70 76 101 0
-27 -79 75 -70 -73 66 0
65 -30 -43 -31 0
4 20 29 0
74 -92 -97 3 58 -112 0
-63 -8 -17 0
27 -68 0
20 -78 -47 -40 102 0
7 60 -89 0
-87 -54 0
-15 9 -70 53 -5 0
-41 102 -105 17 0
68 48 97 -41 52 59 0
-59 18 -64 -31 63 68 0
47 50 0
-38 43 -5 102 60 0
97 55 -57 -110 0
84 -92 6 -30 50 -46 0
-104 -61 73 97 54 -59 0
31 84 -27 0
-50 18 -8 60 113 0
-68 -70 5 80 0
-95 2 51 31 -96 -104 0
27 66 16 109 -96 -81 0
-102 -19 0
34 77 83 0
-23 -85 76 -62 14 -71 0
25 6 10 0
-43 -106 -99 0
5 -13 -37 -30 0
-40 57 -69 -101 -8 92 0
55 -57 0
89 -21 0
61 -95 -74 71 0
-106 9 -19 57 0
104 20 -59 -15 -56 44 0
115 0
